Ba2 Pr1 Cu3 O7
1.0
   3.9039229999999998    0.0000000000000000    0.0000000000000000
   0.0000000000000000    3.9556800000000001    0.0000000000000000
   0.0000000000000000    0.0000000000000000   11.9164320000000004
Ba Pr Cu O
2 1 3 7
direct
   0.5000000000000000    0.5000000000000000    0.8211220000000000 Ba
   0.5000000000000000    0.5000000000000000    0.1788780000000000 Ba
   0.5000000000000000    0.5000000000000000    0.5000000000000000 Pr
   0.0000000000000000    0.0000000000000000    0.6540859999999999 Cu
   0.0000000000000000    0.0000000000000000    0.3459140000000000 Cu
   0.0000000000000000    0.0000000000000000    0.0000000000000000 Cu
   0.0000000000000000    0.5000000000000000    0.0000000000000000 O
   0.5000000000000000    0.0000000000000000    0.6298270000000000 O
   0.5000000000000000    0.0000000000000000    0.3701730000000000 O
   0.0000000000000000    0.5000000000000000    0.6297690000000000 O
   0.0000000000000000    0.5000000000000000    0.3702310000000000 O
   0.0000000000000000    0.0000000000000000    0.8426700000000000 O
   0.0000000000000000    0.0000000000000000    0.1573300000000000 O
