Generated sample 3
1.0
        3.7195410728      -0.0474829786      -0.1040100902
       -0.1062548086       4.2244453430      -0.0277160071
       -0.0919121131      -0.0451735035      12.0977315903
  Ba  Pr  Cu  O
  2  1  3  7
Direct
        0.4967966378       0.5087245107       0.8228951693
        0.5005826950       0.5103446245       0.1778543293
        0.4960073829       0.5082519650       0.5138761401
        0.0053906729       0.0098324260       0.6545739770
        0.0025744285       0.0045511480       0.3458939493
        0.0077470108       0.0033447240       0.0028463125
        0.0022879222       0.5109699965       0.0013864243
        0.5015688539       0.0088012377       0.6318854690
        0.4996610284       0.0113752466       0.3739764690
        0.9946520925       0.5092926025       0.6327490807
        0.9969624281       0.5091014504       0.3790270090
        0.0043039164       0.0119887358       0.8476404548
        0.9999824762       0.0020618609       0.1584643275
