Generated sample 2
1.0
        3.5044586658       0.0507095270      -0.2859871089
       -0.0030290985       4.4005851746      -0.1600920260
       -0.1795731634      -0.1602837294      12.2960996628
  Ba  Pr  Cu  O
  2  1  3  7
Direct
        0.5088990927       0.5199667215       0.8182814717
        0.5027234554       0.5177596807       0.1783301532
        0.5034312606       0.5107046366       0.5089157820
        0.0095459688       0.0090126842       0.6527569294
        0.0101268617       0.0194713529       0.3540648520
        0.0048669879       0.0139450934       0.0039253016
        0.0052398043       0.5209285617       0.0042658644
        0.5073535442       0.0189959873       0.6311285496
        0.5032688975       0.0232024863       0.3722580969
        0.0023757492       0.5107537508       0.6254405975
        0.0161700267       0.5224866271       0.3730424941
        0.0068783653       0.0086102514       0.8407186270
        0.0059315450       0.0063968268       0.1589285284
