Generated sample 0
1.0
        3.8507637978       0.0179011896      -0.2794903219
       -0.0389535651       4.3375811577      -0.0823615491
       -0.0206686463      -0.1965095252      12.1601581573
  Ba  Pr  Cu  O
  2  1  3  7
Direct
        0.4994958341       0.5098128915       0.8144893050
        0.4998366833       0.5086195469       0.1751697361
        0.5046563148       0.5010619760       0.5036336184
        0.0086733038       0.0072828657       0.6506540775
        0.0011021484       0.0064634439       0.3452502191
        0.9947192073       0.0037687002       0.9977502227
        0.9993366599       0.5092344880       0.0051298472
        0.5000196099       0.0135522606       0.6287428737
        0.5053953528       0.0171294156       0.3709263504
        0.0020269882       0.5082989335       0.6330452561
        0.0018514111       0.5074504018       0.3688568175
        0.0070650224       0.0082008662       0.8468010426
        0.9980913997       0.0032017503       0.1551021487
