Generated sample 1
1.0
        3.5857586861      -0.0572486371      -0.3691118956
       -0.0493396483       4.6024975777      -0.1504520327
       -0.2417398691      -0.1221777797      12.3838462830
  Ba  Pr  Cu  O
  2  1  3  7
Direct
        0.4932754338       0.5271643996       0.8319590092
        0.4956743121       0.5252480507       0.1874610335
        0.4916245043       0.5220254064       0.5184904337
        0.0007808850       0.0203323923       0.6646189094
        0.9985782504       0.0221017562       0.3546918333
        0.9962433577       0.0210886691       0.0105734272
        0.0000402667       0.5292768478       0.0105584944
        0.4962234795       0.0288199484       0.6388828754
        0.4995759726       0.0230646115       0.3805514872
        0.9983394146       0.5301767588       0.6384168863
        0.9976197481       0.5215128064       0.3831070662
        0.0022716047       0.0283507090       0.8570613265
        0.0018628463       0.0259787533       0.1726268828
