Generated sample 3
1.0
        3.9114616113       0.0000000000       0.0000000000
        0.0532675854       3.7955937655       0.0000000000
        0.0863031383       0.2413944725      12.0132805167
  Ba  Pr  Cu  O
  2  1  3  7
Direct
        0.4925104678       0.4993112683       0.8230159879
        0.4897139072       0.4986746013       0.1810048223
        0.4941182435       0.4998363256       0.5100561380
        0.9945145249       0.9973391891       0.6616356969
        0.9922785163       0.9988245368       0.3492786586
        0.9944804311       0.9995833039       0.0061017056
        0.9952122569       0.4999265969       0.0084641231
        0.4927139580       0.9980725050       0.6348443627
        0.4929310083       0.9985653162       0.3782601357
        0.9976921082       0.4997059405       0.6392302513
        0.9966723323       0.4975320101       0.3771933913
        0.9924342632       0.9974983931       0.8460582495
        0.9956075549       0.9984904528       0.1625761837
