Generated sample 1
1.0
        4.0011387635       0.0000000000       0.0000000000
       -0.0706802254       3.7947793378       0.0000000000
       -0.0195021001       0.0868530865      11.9079195911
  Ba  Pr  Cu  O
  2  1  3  7
Direct
        0.4963710606       0.5015296936       0.8175371289
        0.4943737686       0.4963265955       0.1804210395
        0.4999631643       0.5073015094       0.5019351840
        0.9954493046       0.9974951744       0.6595508456
        0.9978802204       0.0002403413       0.3446887732
        0.9982748032       0.9964262247       0.0036794525
        0.0038059046       0.4970727265       0.0036965739
        0.4991507530       0.0011493306       0.6297112703
        0.4920503497       0.9945571423       0.3743547797
        0.0131812245       0.5015842319       0.6323689818
        0.0002569228       0.4972796142       0.3752172589
        0.0014540926       0.9945073724       0.8501312137
        0.9970161915       0.9979782701       0.1559444666
