Generated sample 2
1.0
        4.0314669292       0.0000000000       0.0000000000
        0.0840464764       3.8335272909       0.0000000000
       -0.0041877425       0.0962056429      12.0094372074
  Ba  Pr  Cu  O
  2  1  3  7
Direct
        0.4947687685       0.4973400533       0.8235285878
        0.4980705380       0.4986133873       0.1840825081
        0.5010039806       0.4995898306       0.5095307827
        0.0027637363       0.9959677458       0.6622892618
        0.9965162277       0.9956138134       0.3543929458
        0.0011028694       0.9989531040       0.0123085463
        0.0042146007       0.4975301027       0.0091956230
        0.4978211224       0.9950452447       0.6363102198
        0.4979002178       0.9980378747       0.3791272640
        0.0000024152       0.4932420254       0.6367290020
        0.9982714653       0.4965378940       0.3755253553
        0.9982637763       0.9972015619       0.8508891463
        0.0004744701       0.9984068274       0.1628390849
