Generated sample 0
1.0
        4.0151547405       0.0000000000       0.0000000000
       -0.0874489282       3.7990569713       0.0000000000
        0.0798131623       0.1172267141      12.0337310525
  Ba  Pr  Cu  O
  2  1  3  7
Direct
        0.5039313436       0.5037102103       0.8233984709
        0.5016829371       0.5021600127       0.1843531132
        0.5034771562       0.5038818717       0.5109722614
        0.0043547428       0.9998437762       0.6652368307
        0.0031802703       0.0012347787       0.3568878770
        0.0041120872       0.9999830127       0.0085841520
        0.0067032422       0.5027791262       0.0075126654
        0.5088779330       0.9959365726       0.6412600875
        0.5032895207       0.0072938693       0.3782029152
        0.0058204392       0.5020779371       0.6379185915
        0.0037145005       0.5064317584       0.3773256838
        0.0038887577       0.0001070419       0.8454645872
        0.0012936055       0.0075187380       0.1638943702
