Generated sample 1
1.0
   3.9593710899353027   -0.1587922126054764    0.0410415939986706
   0.1708697825670242    3.6888515949249268    0.3705749511718750
   0.2596221864223480   -0.3114047944545746   12.3223085403442383
Ba Pr Cu O
2 1 3 7
direct
   0.5100146532058716    0.4996972978115082    0.8208318948745728 Ba
   0.5066244006156921    0.4878937005996704    0.1979050338268280 Ba
   0.5102984905242920    0.5045871138572693    0.5083463788032532 Pr
   0.9959509968757629    0.9994959831237793    0.6706811785697937 Cu
   0.0026223659515381    0.9830540418624878    0.3621672987937927 Cu
   0.9950263500213623    0.9953981041908264    0.0224343538284302 Cu
   0.0068284571170807    0.5165067911148071    0.0060379803180695 O
   0.5134111642837524    0.9769495129585266    0.6567602157592773 O
   0.5087576508522034    0.9844146370887756    0.3837963938713074 O
   0.9956705570220947    0.5000876188278198    0.6406847238540649 O
   0.9987610578536987    0.5107972621917725    0.3668902516365051 O
   0.0036875605583191    0.9886212348937988    0.8382462263107300 O
   0.9893059730529785    0.9890580177307129    0.1604431271553040 O
