Generated sample 3
1.0
   4.1065192222595215   -0.2436401695013046   -0.1975011676549911
   0.2163104563951492    3.8267922401428223    0.1935171037912369
   0.2616975307464600   -0.1838012188673019   11.8477478027343750
Ba Pr Cu O
2 1 3 7
direct
   0.5143505334854126    0.5030677914619446    0.8242751359939575 Ba
   0.5007650256156921    0.5049023628234863    0.1809102296829224 Ba
   0.4952348768711090    0.5046011209487915    0.5027032494544983 Pr
   0.9991641044616699    0.0052566826343536    0.6417953968048096 Cu
   0.0150164663791656    0.9924451708793640    0.3457762598991394 Cu
   0.9968907237052917    0.9938132166862488    0.0191917121410370 Cu
   0.0138455033302307    0.5097838640213013    0.9951763153076172 O
   0.5120723247528076    0.9906668066978455    0.6306499242782593 O
   0.5117859244346619    0.9857837557792664    0.3749167323112488 O
   0.0156878232955933    0.4980126023292542    0.6238985657691956 O
   0.0113227963447571    0.5246529579162598    0.3567920029163361 O
   0.9960734844207764    0.9893693327903748    0.8413955569267273 O
   0.0053024590015411    0.0017411112785339    0.1505928933620453 O
