Generated sample 0
1.0
   3.9563941955566406   -0.0054864129051566    0.0058624222874641
   0.2862741053104401    3.7469327449798584    0.5030814409255981
   0.1542529612779617   -0.4723967313766479   12.4225883483886719
Ba Pr Cu O
2 1 3 7
direct
   0.4993640184402466    0.5061919093132019    0.8267916440963745 Ba
   0.5056740045547485    0.4970088303089142    0.1943150460720062 Ba
   0.5073522329330444    0.5063209533691406    0.5151602029800415 Pr
   0.9921276569366455    0.0023999214172363    0.6610865592956543 Cu
   0.0083378255367279    0.9823657274246216    0.3586502075195312 Cu
   0.9932507872581482    0.9919990897178650    0.0144472718238831 Cu
   0.9935915470123291    0.5234706997871399    0.9967830777168274 O
   0.5114507675170898    0.9672984480857849    0.6489570736885071 O
   0.5032242536544800    0.9750069379806519    0.3876642584800720 O
   0.9769233465194702    0.5094938278198242    0.6324022412300110 O
   0.9978596568107605    0.5189262628555298    0.3604571223258972 O
   0.0026956200599670    0.9851130843162537    0.8431622982025146 O
   0.0017848014831543    0.9939780831336975    0.1608143150806427 O
