Generated sample 2
1.0
   3.6392321586608887   -0.1436224579811096    0.2878777980804443
   0.3536249101161957    3.6208765506744385    0.3242893218994141
   0.3824470639228821   -0.2875805795192719   12.1043167114257812
Ba Pr Cu O
2 1 3 7
direct
   0.4985685050487518    0.5008058547973633    0.8343197107315063 Ba
   0.5045278072357178    0.4908257424831390    0.1826215088367462 Ba
   0.5075039267539978    0.5135243535041809    0.5057063102722168 Pr
   0.9962103962898254    0.9996805191040039    0.6722168922424316 Cu
   0.0054789185523987    0.9817366003990173    0.3619649112224579 Cu
   0.9990585446357727    0.9858170747756958    0.0248080790042877 Cu
   0.0153171718120575    0.5144826769828796    0.0052054226398468 O
   0.4974876940250397    0.9749090075492859    0.6572832465171814 O
   0.4954478442668915    0.9885970950126648    0.3850507140159607 O
   0.9943111538887024    0.5098517537117004    0.6448207497596741 O
   0.0017338991165161    0.5135936141014099    0.3653942942619324 O
   0.9952216744422913    0.9875147938728333    0.8343390226364136 O
   0.9922760128974915    0.9965420365333557    0.1600383222103119 O
