Generated sample 2
1.0
        3.8297560215       0.2300049365      -0.1742839962
        0.0684190243       3.7407407761       0.0920553431
        0.1778075397       0.0258119106      12.1712169647
  Ba  Pr  Cu  O
  2  1  3  7
Direct
        0.5064921975       0.5042158961       0.8278241754
        0.5104311705       0.4937039912       0.1883106530
        0.5149954557       0.5099200606       0.4855189621
        0.0149875497       0.0194087122       0.6445068121
        0.0156462081       0.0134862149       0.3320442736
        0.0077400412       0.0043501197       0.9904503226
        0.0162711293       0.5152416229       0.0017602402
        0.5173982978       0.0106304204       0.6277239323
        0.5196647644       0.0120822061       0.3717299402
        0.0032010360       0.5133001208       0.6260870099
        0.0179399494       0.5024105310       0.3800116777
        0.0125991134       0.0132440338       0.8453059196
        0.0143605648       0.0102194166       0.1608838439
