Generated sample 3
1.0
        3.8690564632       0.1773167402       0.0814199746
       -0.1831868887       3.9827151299      -0.0775141567
        0.0346884765       0.0233412199      11.8883905411
  Ba  Pr  Cu  O
  2  1  3  7
Direct
        0.4933997393       0.4955710173       0.8247988820
        0.4942617118       0.4928133786       0.1890946925
        0.4974237084       0.4968678951       0.4956605136
        0.9988338947       0.0014916605       0.6565971375
        0.9983839393       0.0024321596       0.3567487597
        0.9982264042       0.0024203502       0.0051849578
        0.9938151240       0.4995299280       0.9991236925
        0.5030962825       0.0002406924       0.6365708113
        0.4958982468       0.9979973435       0.3741720021
        0.9946355224       0.4986881912       0.6335092187
        0.9920995831       0.4987696111       0.3719168901
        0.9980280995       0.9985321760       0.8449270129
        0.9982983470       0.9982779026       0.1610802710
