Generated sample 1
1.0
        3.8463985920       0.0821718648      -0.2163616568
       -0.0654357597       3.9836907387       0.1119514629
        0.0025069835      -0.0835720524      11.9806632996
  Ba  Pr  Cu  O
  2  1  3  7
Direct
        0.5090880394       0.4953544140       0.8146188855
        0.5202450156       0.5059199333       0.1887209117
        0.4963320196       0.5047453046       0.4975558221
        0.0111620482       0.0204854421       0.6485490203
        0.0069057732       0.9952144623       0.3419583440
        0.0111679612       0.9982187748       0.9932894111
        0.0106034568       0.5009861588       0.0051183240
        0.5217602253       0.0130024683       0.6323209405
        0.5288073421       0.0214204434       0.3757464886
        0.0167702604       0.5151664019       0.6306378245
        0.0080050919       0.4948937893       0.3793060780
        0.0109376619       0.0231690872       0.8386657238
        0.0189347230       0.0050578308       0.1573965847
