Generated sample 0
1.0
        3.9468085766      -0.0012611902      -0.0709935576
       -0.0026427880       4.0738139153      -0.0381005518
        0.1386221796      -0.0511480682      12.1482753754
  Ba  Pr  Cu  O
  2  1  3  7
Direct
        0.5082449317       0.4965104759       0.8245542049
        0.4925970435       0.4852707088       0.1773077697
        0.5029600859       0.5021182895       0.4890085757
        0.9948725700       0.0095819412       0.6379850507
        0.0028365541       0.9992693067       0.3376933038
        0.0004788438       0.9854660034       0.9885520935
        0.0133483410       0.5125450492       0.9972836375
        0.5118349195       0.0002556657       0.6279830337
        0.5138539672       0.0070005623       0.3724956512
        0.0133798942       0.5045728087       0.6276363730
        0.0124314893       0.4976276457       0.3757426441
        0.0087083569       0.0076840925       0.8469741344
        0.0036454992       0.0068317205       0.1552592963
